22 4
31 74 83 97 24 43 68 27 73 25 42 82 57 77 81 75 41 39 60 70 38 100
40 84 69 90 25 29 69 51 71 25 67 89 40 85 103 61 43 26 39 61 27 84
28 74 68 84 10 26 57 31 68 10 57 85 57 74 106 64 43 42 53 59 24 103
25 89 86 82 24 27 62 27 79 12 66 85 43 86 90 69 60 30 53 80 37 92
